c Reduced graph for GEOM70a_3 generated by Cyril Grelier
p edge 62 411
e 1 2
e 1 6
e 1 13
e 1 15
e 1 16
e 1 23
e 1 31
e 1 33
e 1 40
e 1 41
e 1 48
e 1 49
e 1 50
e 1 53
e 1 56
e 1 57
e 1 59
e 2 6
e 2 11
e 2 14
e 2 15
e 2 16
e 2 20
e 2 21
e 2 32
e 2 40
e 2 41
e 2 45
e 2 48
e 2 50
e 2 51
e 2 53
e 3 7
e 3 8
e 3 17
e 3 18
e 3 19
e 3 24
e 3 28
e 3 30
e 3 34
e 3 38
e 3 39
e 3 42
e 3 44
e 3 52
e 3 55
e 3 60
e 4 12
e 4 16
e 4 27
e 4 29
e 4 50
e 4 51
e 4 54
e 4 57
e 4 58
e 4 61
e 5 21
e 5 34
e 5 42
e 5 45
e 6 13
e 6 15
e 6 16
e 6 20
e 6 23
e 6 31
e 6 33
e 6 37
e 6 40
e 6 41
e 6 46
e 6 48
e 6 49
e 6 50
e 6 53
e 6 56
e 6 59
e 7 8
e 7 17
e 7 18
e 7 19
e 7 24
e 7 28
e 7 30
e 7 34
e 7 38
e 7 39
e 7 42
e 7 44
e 7 52
e 7 55
e 7 60
e 8 17
e 8 18
e 8 19
e 8 24
e 8 28
e 8 30
e 8 34
e 8 38
e 8 39
e 8 42
e 8 44
e 8 52
e 8 55
e 8 60
e 9 10
e 9 12
e 9 22
e 9 26
e 9 27
e 9 35
e 9 36
e 9 43
e 9 47
e 9 51
e 9 54
e 9 58
e 9 61
e 9 62
e 10 18
e 10 22
e 10 25
e 10 26
e 10 27
e 10 32
e 10 35
e 10 36
e 10 43
e 10 54
e 10 62
e 11 14
e 11 15
e 11 16
e 11 21
e 11 32
e 11 40
e 11 42
e 11 45
e 11 50
e 11 53
e 12 26
e 12 27
e 12 29
e 12 43
e 12 47
e 12 51
e 12 54
e 12 58
e 12 61
e 13 23
e 13 31
e 13 41
e 13 48
e 13 49
e 13 53
e 13 56
e 13 59
e 14 15
e 14 21
e 14 30
e 14 32
e 14 40
e 14 42
e 14 45
e 15 16
e 15 20
e 15 21
e 15 31
e 15 33
e 15 37
e 15 40
e 15 41
e 15 45
e 15 46
e 15 48
e 15 49
e 15 50
e 15 53
e 16 20
e 16 31
e 16 40
e 16 41
e 16 48
e 16 49
e 16 50
e 16 51
e 16 53
e 16 57
e 17 18
e 17 19
e 17 24
e 17 28
e 17 30
e 17 34
e 17 38
e 17 39
e 17 44
e 17 52
e 17 55
e 17 60
e 18 22
e 18 25
e 18 28
e 18 35
e 18 36
e 18 38
e 18 39
e 18 52
e 18 60
e 18 62
e 19 24
e 19 28
e 19 30
e 19 34
e 19 38
e 19 39
e 19 42
e 19 44
e 19 52
e 19 55
e 20 31
e 20 33
e 20 37
e 20 40
e 20 41
e 20 46
e 20 48
e 20 49
e 20 53
e 21 30
e 21 32
e 21 40
e 21 42
e 21 45
e 22 25
e 22 26
e 22 35
e 22 36
e 22 43
e 22 54
e 22 62
e 23 31
e 23 41
e 23 48
e 23 49
e 23 56
e 23 59
e 24 28
e 24 30
e 24 34
e 24 38
e 24 39
e 24 42
e 24 44
e 24 52
e 24 55
e 25 28
e 25 32
e 25 35
e 25 36
e 25 38
e 25 39
e 25 43
e 25 60
e 25 62
e 26 27
e 26 43
e 26 47
e 26 54
e 26 58
e 26 61
e 27 29
e 27 43
e 27 47
e 27 50
e 27 51
e 27 54
e 27 57
e 27 58
e 27 61
e 28 38
e 28 39
e 28 52
e 28 55
e 28 60
e 29 51
e 29 57
e 29 58
e 29 61
e 30 32
e 30 34
e 30 38
e 30 39
e 30 42
e 30 44
e 30 45
e 30 55
e 31 33
e 31 41
e 31 46
e 31 48
e 31 49
e 31 53
e 31 56
e 31 59
e 32 35
e 32 36
e 32 38
e 32 39
e 32 42
e 32 45
e 32 50
e 33 37
e 33 40
e 33 41
e 33 46
e 33 48
e 33 49
e 33 53
e 33 56
e 33 59
e 34 38
e 34 42
e 34 44
e 34 55
e 35 36
e 35 38
e 35 39
e 35 43
e 35 54
e 35 62
e 36 38
e 36 39
e 36 43
e 36 54
e 36 62
e 37 40
e 37 45
e 37 46
e 37 49
e 38 39
e 38 42
e 38 44
e 38 52
e 38 55
e 38 60
e 39 42
e 39 44
e 39 52
e 39 55
e 39 60
e 39 62
e 40 41
e 40 45
e 40 46
e 40 48
e 40 49
e 40 50
e 40 53
e 41 48
e 41 49
e 41 50
e 41 53
e 41 56
e 41 57
e 41 59
e 42 44
e 42 45
e 43 47
e 43 54
e 43 61
e 43 62
e 44 55
e 46 49
e 46 59
e 47 54
e 47 58
e 47 61
e 48 49
e 48 50
e 48 53
e 48 56
e 48 57
e 48 59
e 49 53
e 49 56
e 49 59
e 50 51
e 50 53
e 50 57
e 50 58
e 51 54
e 51 57
e 51 58
e 51 61
e 52 55
e 52 60
e 53 56
e 53 57
e 53 59
e 54 58
e 54 61
e 54 62
e 55 60
e 56 59
e 57 58
e 58 61
e 60 62
